
Gurobi 8.1.1 (mac64, Python) logging started Thu Nov  7 00:09:58 2019

Academic license - for non-commercial use only
Optimize a model with 71 rows, 1491 columns and 1491 nonzeros
Coefficient statistics:
  Matrix range     [1e+00, 1e+00]
  Objective range  [1e+00, 1e+01]
  Bounds range     [0e+00, 0e+00]
  RHS range        [3e+00, 3e+00]
Presolve removed 71 rows and 1491 columns
Presolve time: 0.05s
Presolve: All rows and columns removed
Iteration    Objective       Primal Inf.    Dual Inf.      Time
       0    2.0580000e+03   0.000000e+00   0.000000e+00      0s

Solved in 0 iterations and 0.07 seconds
Optimal objective  2.058000000e+03
Optimize a model with 71 rows, 1491 columns and 1491 nonzeros
Coefficient statistics:
  Matrix range     [1e+00, 1e+00]
  Objective range  [4e+00, 1e+01]
  Bounds range     [0e+00, 0e+00]
  RHS range        [3e+00, 3e+00]
Presolve removed 71 rows and 1491 columns
Presolve time: 0.01s
Presolve: All rows and columns removed
Iteration    Objective       Primal Inf.    Dual Inf.      Time
       0    2.1030000e+03   0.000000e+00   0.000000e+00      0s

Solved in 0 iterations and 0.02 seconds
Optimal objective  2.103000000e+03
Optimize a model with 71 rows, 1491 columns and 1491 nonzeros
Coefficient statistics:
  Matrix range     [1e+00, 1e+00]
  Objective range  [4e+00, 7e+00]
  Bounds range     [0e+00, 0e+00]
  RHS range        [3e+00, 3e+00]
Presolve removed 71 rows and 1491 columns
Presolve time: 0.02s
Presolve: All rows and columns removed
Iteration    Objective       Primal Inf.    Dual Inf.      Time
       0    1.4820000e+03   0.000000e+00   0.000000e+00      0s

Solved in 0 iterations and 0.03 seconds
Optimal objective  1.482000000e+03
Optimize a model with 142 rows, 1491 columns and 1562 nonzeros
Coefficient statistics:
  Matrix range     [1e+00, 1e+00]
  Objective range  [4e+00, 7e+00]
  Bounds range     [0e+00, 0e+00]
  RHS range        [1e+00, 3e+00]
Presolve removed 142 rows and 1491 columns
Presolve time: 0.02s
Presolve: All rows and columns removed
Iteration    Objective       Primal Inf.    Dual Inf.      Time
       0    1.3000000e+03   0.000000e+00   0.000000e+00      0s

Solved in 0 iterations and 0.05 seconds
Optimal objective  1.300000000e+03
Optimize a model with 142 rows, 1491 columns and 1562 nonzeros
Coefficient statistics:
  Matrix range     [1e+00, 1e+00]
  Objective range  [3e+00, 1e+01]
  Bounds range     [0e+00, 0e+00]
  RHS range        [1e+00, 3e+00]
Presolve removed 142 rows and 1491 columns
Presolve time: 0.03s
Presolve: All rows and columns removed
Iteration    Objective       Primal Inf.    Dual Inf.      Time
       0    1.6740000e+03   0.000000e+00   0.000000e+00      0s

Solved in 0 iterations and 0.06 seconds
Optimal objective  1.674000000e+03
Optimize a model with 142 rows, 1491 columns and 1562 nonzeros
Coefficient statistics:
  Matrix range     [1e+00, 1e+00]
  Objective range  [3e+00, 1e+01]
  Bounds range     [0e+00, 0e+00]
  RHS range        [1e+00, 3e+00]
Presolve removed 142 rows and 1491 columns
Presolve time: 0.01s
Presolve: All rows and columns removed
Iteration    Objective       Primal Inf.    Dual Inf.      Time
       0    1.6740000e+03   0.000000e+00   0.000000e+00      0s

Solved in 0 iterations and 0.02 seconds
Optimal objective  1.674000000e+03
Optimize a model with 142 rows, 1491 columns and 1562 nonzeros
Coefficient statistics:
  Matrix range     [1e+00, 1e+00]
  Objective range  [3e+00, 1e+01]
  Bounds range     [0e+00, 0e+00]
  RHS range        [1e+00, 3e+00]
Presolve removed 142 rows and 1491 columns
Presolve time: 0.01s
Presolve: All rows and columns removed
Iteration    Objective       Primal Inf.    Dual Inf.      Time
       0    1.6740000e+03   0.000000e+00   0.000000e+00      0s

Solved in 0 iterations and 0.02 seconds
Optimal objective  1.674000000e+03
Optimize a model with 142 rows, 1491 columns and 1562 nonzeros
Coefficient statistics:
  Matrix range     [1e+00, 1e+00]
  Objective range  [3e+00, 1e+01]
  Bounds range     [0e+00, 0e+00]
  RHS range        [1e+00, 3e+00]
Presolve removed 142 rows and 1491 columns
Presolve time: 0.02s
Presolve: All rows and columns removed
Iteration    Objective       Primal Inf.    Dual Inf.      Time
       0    2.0820000e+03   0.000000e+00   0.000000e+00      0s

Solved in 0 iterations and 0.04 seconds
Optimal objective  2.082000000e+03
Optimize a model with 71 rows, 1491 columns and 1491 nonzeros
Variable types: 0 continuous, 1491 integer (1491 binary)
Coefficient statistics:
  Matrix range     [1e+00, 1e+00]
  Objective range  [3e+00, 1e+01]
  Bounds range     [1e+00, 1e+00]
  RHS range        [3e+00, 3e+00]
Found heuristic solution: objective 885.0000000
Presolve removed 71 rows and 1491 columns
Presolve time: 0.03s
Presolve: All rows and columns removed

Explored 0 nodes (0 simplex iterations) in 0.08 seconds
Thread count was 1 (of 4 available processors)

Solution count 2: 1864 885 

Optimal solution found (tolerance 1.00e-04)
Best objective 1.864000000000e+03, best bound 1.864000000000e+03, gap 0.0000%

Gurobi 8.1.1 (mac64, Python) logging started Fri Nov  8 03:37:19 2019

Academic license - for non-commercial use only
Optimize a model with 71 rows, 1491 columns and 1491 nonzeros
Variable types: 0 continuous, 1491 integer (1491 binary)
Coefficient statistics:
  Matrix range     [1e+00, 1e+00]
  Objective range  [2e+00, 1e+01]
  Bounds range     [1e+00, 1e+00]
  RHS range        [3e+00, 3e+00]
Found heuristic solution: objective 740.0000000
Presolve removed 71 rows and 1491 columns
Presolve time: 0.02s
Presolve: All rows and columns removed

Explored 0 nodes (0 simplex iterations) in 0.10 seconds
Thread count was 1 (of 4 available processors)

Solution count 2: 1876 740 

Optimal solution found (tolerance 1.00e-04)
Best objective 1.876000000000e+03, best bound 1.876000000000e+03, gap 0.0000%
